(declare-const x String)
(declare-const y String)
(declare-const z String)
(assert (str.in.re x (re.* (re.union (str.to.re "a") (str.to.re "b")))))
(assert (= y (str.replaceall x "ab" "c")))
(assert (= z (str.replaceall y "ac" "aaaa")))
(assert (<= (+ (str.len x) 5) (str.len z)))
(check-sat)
(get-model)
